num_clientes = 4;
num_dias = 6;
num_plantas = 3;
min_porcent_demanda = 55;
reg_alto_dias = 1;
reg_alto_porcent = 80;
costo = [50, 30, 20];
capacidad = [1100, 350, 600];
pago = [70, 65, 63, 67];
demanda = [| 650,  850, 900, 800 
          | 630,  870, 910, 810
          | 620, 880,  920, 815
          | 610,  890, 930, 820
          | 600,  900, 940, 835
          | 790, 910,  950, 840
          |];
